PROBLEM NAME: eil51_n7
KNAPSACK DATA TYPE: uncorrelated
DIMENSION: 7
NUMBER OF ITEMS: 30
CAPACITY OF KNAPSACK: 7189
MIN SPEED: 0.1
MAX SPEED: 1
RENTING RATIO: 14.10
EDGE_WEIGHT_TYPE: CEIL_2D
NODE_COORD_SECTION	(INDEX, X, Y):
1	42	57
2	7	38
3	30	48
4	45	35
5	5	6
6	56	37
7	30	40
ITEMS SECTION	(INDEX, PROFIT, WEIGHT, ASSIGNED NODE NUMBER):
1	928	539	3
2	848	454	3
3	813	354	3
4	792	68	3
5	790	280	3
6	773	586	7
7	753	519	7
8	752	4	7
9	710	872	7
10	682	337	7
11	652	486	2
12	647	883	2
13	605	134	2
14	575	685	2
15	488	354	2
16	477	851	5
17	393	17	5
18	374	13	5
19	373	110	5
20	364	139	5
21	353	938	4
22	264	58	4
23	245	675	4
24	242	954	4
25	234	355	4
26	225	696	6
27	112	139	6
28	111	936	6
29	70	246	6
30	50	498	6
